33D32945 STP File, STP Format Version 1.0

SECTION Comments
Name "edge_n15_d3_s2"
Problem "Euclidean Steiner Tree Problem"
Remark "Generated with STPGenerator. 3 dimensions."
END

SECTION Graph
Nodes 15
END

SECTION Coordinates
DDD 0 0.7009763693 0.7009763693 0.7009763693
DDD 1 0.8096763491 0.8096763491 0.8096763491
DDD 2 0.0887954552 0.0887954552 0.0887954552
DDD 3 0.1214791905 0.1214791905 0.1214791905
DDD 4 0.3483067552 0.3483067552 0.3483067552
DDD 5 0.4219620016 0.4219620016 0.4219620016
DDD 6 0.6998054984 0.6998054984 0.6998054984
DDD 7 0.0663843365 0.0663843365 0.0663843365
DDD 8 0.5874823525 0.5874823525 0.5874823525
DDD 9 0.6429663057 0.6429663057 0.6429663057
DDD 10 0.9906032789 0.9906032789 0.9906032789
DDD 11 0.2957182840 0.2957182840 0.2957182840
DDD 12 0.2713367107 0.2713367107 0.2713367107
DDD 13 0.0696559870 0.0696559870 0.0696559870
DDD 14 0.9496393790 0.9496393790 0.9496393790
END
